NAME: kroC100.tour
TYPE: TOUR
DIMENSION: 100
COMMENT: best tour cost = 23566.4
TOUR_SECTION 

38
71
39
28
88
98
58
34
90
25
17
8
22
75
54
6
47
31
67
55
42
64
20
79
13
15
27
85
1
53
40
12
46
29
18
49
93
4
60
14
36
57
74
100
33
45
81
97
10
92
99
19
66
44
63
16
51
37
61
26
78
9
82
7
32
24
48
84
11
52
96
87
69
3
73
59
41
89
21
23
35
2
68
30
77
80
65
62
83
72
50
95
94
91
70
76
86
5
43
56
-38
